100
128
3
39
48
23
23
11
17
20
35
5
27
5
23
11
61
13
16
1
1
19
48
38
15
47
33
38
43
47
32
4
34
12
12
46
4
48
36
32
3
18
13
38
15
19
20
34
44
32
33
15
19
59
38
30
23
29
61
13
47
56
24
40
64
23
29
64
44
45
63
37
39
61
34
38
45
29
55
46
30
46
57
28
61
26
34
40
58
54
25
45
32
32
64
6
5
39
48
64
64
39